&CONTROL
   calculation      = 'scf'
   tprnfor          = .true.
   outdir           = './'
   disk_io          = 'none'
   pseudo_dir       = '/'
/
&SYSTEM
   tot_charge       = 0
   ecutwfc          = 110
   input_dft        = 'SCAN'
   ntyp             = 5
   nat              = 469
   ibrav            = 0
/
&ELECTRONS
   electron_maxstep = 20
   mixing_beta      = 0.5
/
&IONS
/
&CELL
/
&FCP
/
&RISM
/
ATOMIC_SPECIES
K 39.0983 K_ONCV_PBE_sr.upf
O 15.999 O_ONCV_PBE_sr.upf
Al 26.9815385 Al_ONCV_PBE_sr.upf
Si 28.085 Si_ONCV_PBE_sr.upf
H 1.008 H_ONCV_PBE_sr.upf

K_POINTS gamma

CELL_PARAMETERS angstrom
14.38000000000000 0.00000000000000 0.00000000000000
3.79226300000000 15.03099200000000 0.00000000000000
-16.02692595000000 -16.61449230000000 28.01481619999999

ATOMIC_POSITIONS angstrom
K -14.7307374351 -15.8584747802 41.3456264676  
O -18.6037534763 -15.5654793786 40.8426404533  
K -18.2700073510 -14.2044739946 38.4796307280  
K -20.1670040302 -21.7194664563 38.4796307280  
Al -16.3720023538 -19.0134684558 41.9536280215  
Al -18.5240308313 -18.5644968652 37.8706686662  
Si -12.5847747416 -10.9885045350 37.7386788607  
Si -14.4800391663 -18.5044965577 37.7386788607  
Si -14.5530255151 -15.5104952814 37.7186682777  
Si -12.6577610904 -7.9945032587 37.7186682777  
Si -18.4230012827 -17.1604729988 40.5266333266  
Si -16.4730319024 -20.4174923222 39.2976633611  
O -21.9810115661 -18.6014691375 42.2836425563  
O -12.9150250167 -18.9764811525 37.5406541313  
O -14.3970178851 -14.4974852662 38.9836572926  
O -16.2940157020 -22.0124822373 38.9836572926  
O -13.2630297986 -15.3764981577 36.7616821563  
O -15.9217708272 -10.7315154069 36.3926870058  
O -11.3677653739 -7.8605061350 36.7616821563  
O -17.8180418518 -18.2475074296 36.3926870058  
O -19.7080332118 -17.9514881701 41.1216680227  
O -15.1890331486 -19.6264930209 38.7036692153  
O -16.5210423704 -20.3154997218 40.9246838436  
O -18.3760154394 -17.2634735146 38.9006533943  
O -12.7317824973 -9.4735189609 38.3907036972  
O -14.6270469220 -16.9895109837 38.3907036972  
O -17.0470079324 -17.6644683104 41.2096345455  
O -17.8490518280 -19.9135128806 38.6157026924  
O -13.2547385568 -10.9594776514 36.2176344257  
O -15.9300210362 -15.1474813667 36.9366546940  
O -15.1510095815 -18.4754696741 36.2176344257  
O -14.0347566115 -7.6314893440 36.9366546940  
K -20.4420146480 -27.3284694972 48.0156340355  
Al -20.4447381859 -15.0034724916 44.5416367420  
Al -18.2927496976 -15.4534820597 48.6256366477  
Si -24.2320477862 -23.0295068289 48.7577064955  
Si -22.3367833615 -15.5135148061 48.7577064955  
Si -22.2637550138 -18.5074836435 48.7776370361  
Si -24.1600116585 -26.0234756662 48.7776370361  
Si -18.3937648662 -16.8575059261 45.9696719872  
Si -20.3437726008 -13.5995111262 47.1976814448  
O -14.8357627389 -15.4154876799 44.2126627575  
O -23.9017781258 -15.0415143414 48.9546906745  
O -24.3150104131 -27.0364766628 47.5126480212  
O -20.8950411129 -23.2865109880 50.1036983504  
O -23.5537661539 -18.6414973361 49.7336626495  
O -18.9997766883 -15.7705189652 50.1036983504  
O -25.4500227986 -26.1574893589 49.7336626495  
O -17.1097442955 -16.0654836783 45.3746372912  
O -21.6277675623 -14.3904953964 47.7916755906  
O -20.2957801575 -13.7025116420 45.5717015125  
O -18.4407767209 -16.7545069482 47.5946914115  
O -24.0850038336 -24.5434694564 48.1046411087  
O -22.1897537889 -17.0274774337 48.1046411087  
O -19.7697469873 -16.3524726370 45.2856302180  
O -18.9677792505 -14.1035064378 47.8806826637  
O -20.8867557005 -18.8704825272 49.5596506198  
O -23.5620323505 -23.0574941970 50.2786708881  
O -22.7830123451 -26.3864745499 49.5596506198  
O -21.6667679258 -15.5415021743 50.2786708881  
K -18.5467513610 -19.8124819838 48.0156340355  
O -22.4197444715 -19.5204786277 47.5126480212  
K -22.0860249215 -18.1594891137 45.1506788462  
K -16.6269999758 -23.3734642357 41.3456264676  
K -23.9830393937 -25.6744951034 45.1506788462  
Al -20.1880045006 -22.9684670060 48.6256366477  
Al -16.6287664066 -11.0485048424 37.8706686662  
Al -14.4767597460 -11.4984993795 41.9546685718  
Al -22.3400026106 -22.5194645143 44.5416367420  
Si -16.4007801168 -14.9435037841 44.4086864286  
Si -20.4170186435 -19.0744766787 42.0866583773  
Si -18.2960301615 -22.4594958068 44.4086864286  
Si -18.5207859731 -11.5575091795 42.0856978693  
Si -18.3690308903 -19.4654945305 44.3886758456  
Si -18.4487716622 -14.5525009633 42.1066689603  
Si -16.4727742456 -11.9495025078 44.3886758456  
Si -20.3430076700 -22.0674700395 42.1056284099  
Si -14.5777674777 -12.9015002994 39.2976633611  
Si -22.2390066579 -21.1154722479 47.1966408945  
Si -20.2890292909 -24.3734979488 45.9696719872  
Si -16.5277512380 -9.6444809761 40.5266333266  
O -25.7970411125 -22.5575063641 48.9546906745  
O -11.0197605920 -11.4604891297 37.5406541313  
O -20.0857495731 -11.0864841913 42.2836425563  
O -16.7320193836 -22.9314797026 44.2126627575  
O -18.2130232603 -18.4524845153 45.6536648605  
O -20.1100222148 -25.9674859957 45.6536648605  
O -20.5000105002 -23.0814729044 40.8426404533  
O -17.0790197502 -19.3314808379 43.4326502322  
O -19.7377569864 -14.6864830560 43.0636550817  
O -15.1837553255 -11.8154888151 43.4326502322  
O -21.6340136311 -22.2024750788 43.0636550817  
O -13.2937687239 -12.1105009982 38.7036692153  
O -23.5230319870 -21.9064874192 47.7916755906  
O -19.0050087202 -23.5814757011 45.3746372912  
O -17.8117621871 -10.4354961473 41.1216680227  
O -20.3370419162 -24.2695069255 47.5946914115  
O -16.4807510147 -9.7474814919 38.9006533943  
O -14.6257779457 -12.7995076991 40.9246838436  
O -22.1920511821 -21.2185036648 45.5717015125  
O -16.5477724489 -13.4285016411 45.0616717730  
O -20.2700050584 -20.5884702073 41.4346335408  
O -18.4430368735 -20.9444936638 45.0616717730  
O -18.3737484137 -13.0724781846 41.4346335408  
O -20.8630292952 -21.6194984605 47.8806826637  
O -15.9537874033 -12.3975208578 38.6157026924  
O -15.1517738753 -10.1485071887 41.2106750959  
O -21.6650114120 -23.8684646597 45.2856302180  
O -17.0707742995 -14.9145078015 42.8886825439  
O -19.7460423989 -19.1025115169 43.6077028123  
O -18.9660387242 -22.4304998243 42.8886825439  
O -17.8507779742 -11.5865194941 43.6077028123  
H -19.8990373459 -23.5374948985 50.5236804664  
H -23.2247665737 -18.7164913944 50.7916621939  
H -18.0037729213 -16.0215028758 50.5236804664  
H -25.1200166183 -26.2324834171 50.7916621939  
H -20.9987852492 -18.6305117278 50.6367002392  
H -24.3030220402 -22.6854929481 51.0166611892  
H -22.8950418938 -26.1465037505 50.6367002392  
H -26.2000187952 -30.2004857105 51.0166611892  
K -7.5407374351 -15.8584747802 41.3456264676  
O -11.4137534763 -15.5654793786 40.8426404533  
K -11.0800073510 -14.2044739946 38.4796307280  
K -12.9770040302 -21.7194664563 38.4796307280  
Al -9.1820023538 -19.0134684558 41.9536280215  
Al -11.3340308313 -18.5644968652 37.8706686662  
Si -5.3947747416 -10.9885045350 37.7386788607  
Si -7.2900391663 -18.5044965577 37.7386788607  
Si -7.3630255151 -15.5104952814 37.7186682777  
Si -5.4677610904 -7.9945032587 37.7186682777  
Si -11.2330012827 -17.1604729988 40.5266333266  
Si -9.2830319024 -20.4174923222 39.2976633611  
O -14.7910043761 -18.6014691375 42.2836425563  
O -20.1050192647 -18.9764811525 37.5406541313  
O -7.2070178851 -14.4974852662 38.9836572926  
O -9.1040157020 -22.0124822373 38.9836572926  
O -6.0730297986 -15.3764981577 36.7616821563  
O -8.7317708272 -10.7315154069 36.3926870058  
O -4.1777653739 -7.8605061350 36.7616821563  
O -10.6280418518 -18.2475074296 36.3926870058  
O -12.5180332118 -17.9514881701 41.1216680227  
O -7.9990331486 -19.6264930209 38.7036692153  
O -9.3310423704 -20.3154997218 40.9246838436  
O -11.1860154394 -17.2634735146 38.9006533943  
O -5.5417824973 -9.4735189609 38.3907036972  
O -7.4370469220 -16.9895109837 38.3907036972  
O -9.8570079324 -17.6644683104 41.2096345455  
O -10.6590518280 -19.9135128806 38.6157026924  
O -6.0647385568 -10.9594776514 36.2176344257  
O -8.7400210362 -15.1474813667 36.9366546940  
O -7.9610095815 -18.4754696741 36.2176344257  
O -6.8447566115 -7.6314893440 36.9366546940  
K -13.2520146480 -27.3284694972 48.0156340355  
Al -13.2547381859 -15.0034724916 44.5416367420  
Al -11.1027496976 -15.4534820597 48.6256366477  
Si -17.0420477862 -23.0295068289 48.7577064955  
Si -15.1467833615 -15.5135148061 48.7577064955  
Si -15.0737550138 -18.5074836435 48.7776370361  
Si -16.9700116585 -26.0234756662 48.7776370361  
Si -11.2037648662 -16.8575059261 45.9696719872  
Si -13.1537726008 -13.5995111262 47.1976814448  
O -22.0257584249 -15.4154876799 44.2126627575  
O -16.7117853158 -15.0415143414 48.9546906745  
O -17.1250104131 -27.0364766628 47.5126480212  
O -13.7050411129 -23.2865109880 50.1036983504  
O -16.3637661539 -18.6414973361 49.7336626495  
O -11.8097766882 -15.7705189652 50.1036983504  
O -18.2600227986 -26.1574893589 49.7336626495  
O -9.9197442955 -16.0654836783 45.3746372912  
O -14.4377675623 -14.3904953964 47.7916755906  
O -13.1057801575 -13.7025116420 45.5717015125  
O -11.2507767209 -16.7545069482 47.5946914115  
O -16.8950038336 -24.5434694564 48.1046411087  
O -14.9997537889 -17.0274774337 48.1046411087  
O -12.5797469873 -16.3524726370 45.2856302180  
O -11.7777792505 -14.1035064378 47.8806826637  
O -13.6967557005 -18.8704825272 49.5596506198  
O -16.3720323505 -23.0574941970 50.2786708881  
O -15.5930123451 -26.3864745499 49.5596506198  
O -14.4767679258 -15.5415021743 50.2786708881  
K -11.3567513610 -19.8124819838 48.0156340355  
O -15.2297444715 -19.5204786277 47.5126480212  
K -14.8960249215 -18.1594891137 45.1506788462  
K -9.4369999758 -23.3734642357 41.3456264676  
K -16.7930393937 -25.6744951034 45.1506788462  
Al -12.9980045006 -22.9684670060 48.6256366477  
Al -9.4387664066 -11.0485048424 37.8706686662  
Al -7.2867597460 -11.4984993795 41.9546685718  
Al -15.1500026106 -22.5194645143 44.5416367420  
Si -9.2107801168 -14.9435037841 44.4086864286  
Si -13.2270186435 -19.0744766787 42.0866583773  
Si -11.1060301615 -22.4594958068 44.4086864286  
Si -11.3307859731 -11.5575091795 42.0856978693  
Si -11.1790308903 -19.4654945305 44.3886758456  
Si -11.2587716622 -14.5525009633 42.1066689603  
Si -9.2827742456 -11.9495025078 44.3886758456  
Si -13.1530076700 -22.0674700395 42.1056284099  
Si -7.3877674777 -12.9015002994 39.2976633611  
Si -15.0490066579 -21.1154722479 47.1966408945  
Si -13.0990292909 -24.3734979488 45.9696719872  
Si -9.3377512380 -9.6444809761 40.5266333266  
O -18.6070353605 -22.5575063641 48.9546906745  
O -18.2097562780 -11.4604891297 37.5406541313  
O -12.8957495731 -11.0864841913 42.2836425563  
O -23.9220222596 -22.9314797026 44.2126627575  
O -11.0230232603 -18.4524845153 45.6536648605  
O -12.9200222148 -25.9674859957 45.6536648605  
O -13.3100105002 -23.0814729044 40.8426404533  
O -9.8890197502 -19.3314808379 43.4326502322  
O -12.5477569864 -14.6864830560 43.0636550817  
O -7.9937553255 -11.8154888151 43.4326502322  
O -14.4440136311 -22.2024750788 43.0636550817  
O -6.1037687239 -12.1105009982 38.7036692153  
O -16.3330319870 -21.9064874192 47.7916755906  
O -11.8150087202 -23.5814757011 45.3746372912  
O -10.6217621871 -10.4354961473 41.1216680227  
O -13.1470419162 -24.2695069255 47.5946914115  
O -9.2907510147 -9.7474814919 38.9006533943  
O -7.4357779457 -12.7995076991 40.9246838436  
O -15.0020511821 -21.2185036648 45.5717015125  
O -9.3577724489 -13.4285016411 45.0616717730  
O -13.0800050584 -20.5884702073 41.4346335408  
O -11.2530368735 -20.9444936638 45.0616717730  
O -11.1837484137 -13.0724781846 41.4346335408  
O -13.6730292952 -21.6194984605 47.8806826637  
O -8.7637874033 -12.3975208578 38.6157026924  
O -7.9617738753 -10.1485071887 41.2106750959  
O -14.4750114120 -23.8684646597 45.2856302180  
O -9.8807742995 -14.9145078015 42.8886825439  
O -12.5560423989 -19.1025115169 43.6077028123  
O -11.7760387242 -22.4304998243 42.8886825439  
O -10.6607779742 -11.5865194941 43.6077028123  
H -27.0890344699 -23.5374948985 50.5236804664  
H -16.0347665737 -18.7164913944 50.7916621939  
H -25.1937714832 -16.0215028758 50.5236804664  
H -17.9300166183 -26.2324834171 50.7916621939  
H -13.8087852492 -18.6305117278 50.6367002392  
H -17.1130220402 -22.6854929481 51.0166611892  
H -15.7050418938 -26.1465037505 50.6367002392  
H -19.0100187952 -30.2004857105 51.0166611892  
H -12.3410137479 -15.3894833880 37.3806495097  
H -14.9257670602 -10.9824993174 36.8126691218  
H -10.4457493232 -7.8734913653 37.3806495097  
H -16.8220237048 -18.4984913402 36.8126691218  
H -14.2947363842 -10.5754734243 36.2786266827  
H -16.6700137831 -14.7424776507 37.6586365287  
H -16.1900055673 -18.0904583705 36.2786266827  
H -18.5670040354 -22.2584705753 37.6586365287  
H -19.5310179181 -15.3894833880 37.3806495097  
H -7.7357670602 -10.9824993174 36.8126691218  
H -17.6357549314 -7.8734913653 37.3806495097  
H -9.6320237048 -18.4984913402 36.8126691218  
H -7.1047363842 -10.5754734243 36.2786266827  
H -9.4800137831 -14.7424776507 37.6586365287  
H -9.0000055673 -18.0904583705 36.2786266827  
H -11.3770040354 -22.2584705753 37.6586365287  
O -30.1492773149 -26.7534659903 63.5266373421  
H -30.7892638057 -27.3074636485 63.8956324926  
H -30.7352832567 -26.3524724755 62.8596445896  
O -22.2253146522 -26.6885009545 58.8837018321  
H -21.9012796791 -26.7264677259 59.8296421117  
H -23.1512708061 -26.3274519213 58.9726288630  
O -32.8973106047 -29.9305002848 68.4887016298  
H -32.4162907627 -29.6074753127 67.7276591371  
H -32.2913069537 -29.8164997233 69.2447014555  
O -23.0172932575 -26.4414770910 68.8136734977  
H -27.1175535746 -40.8754765027 69.4946736584  
H -22.8782831496 -27.3334752685 69.1866707648  
O -16.8582789768 -28.9164672056 55.8406524541  
H -30.9562909288 -29.8584762567 55.8786725618  
H -17.7412756208 -28.9984638082 55.3806491721  
O -22.4733143332 -27.9935024706 56.3016962865  
H -22.1382785738 -27.1964668111 55.8916394196  
H -22.6513044026 -27.7085003402 57.2056943841  
O -21.9732935460 -30.2324836664 54.9156832656  
H -21.7612869213 -30.8284790012 55.6516725083  
H -22.2422887468 -29.3854782956 55.3906544636  
O -24.0073008447 -22.6204954853 59.2186789915  
H -24.7802883324 -23.1194794087 59.3406635055  
H -23.5573195542 -23.0405083047 58.4337038416  
O -26.7565681018 -37.7524884730 64.0886945974  
H -23.1902982780 -23.4994961594 63.5316800090  
H -27.2195713132 -37.8624868224 64.9156919716  
O -24.0763033054 -25.0164934941 62.7246932178  
H -24.7163074241 -24.8445013359 62.0456941155  
H -24.5102665560 -25.5364559862 63.4316270940  
O -27.6135337320 -38.6614562957 66.6316394851  
H -28.4635486720 -39.0674665560 66.8906564714  
H -27.1795638891 -38.4344793796 67.4576763513  
O -18.8250016440 -19.9264652278 55.9506306183  
H -18.7400476444 -19.6075036879 56.9136999569  
H -19.3640262027 -19.2434937566 55.5646664934  
O -28.2813096497 -27.4725052591 61.6746979066  
H -27.4943142006 -27.6785044283 62.2117019120  
H -28.8973001685 -27.1394829986 62.3196790179  
O -29.4962871049 -30.9104749784 63.7126557217  
H -29.7902925832 -30.3254910705 62.9946760036  
H -29.0822675837 -31.6244594245 63.2246376235  
O -29.7803095589 -25.2724983525 67.0557037600  
H -29.3013022771 -24.6974825162 66.4096820984  
H -29.4592994864 -26.1674844252 66.8596800889  
O -16.1752843243 -25.0264683557 56.5216526148  
H -16.3973156794 -24.8444961275 57.4507039623  
H -29.9523015549 -25.8064902893 56.5146889319  
O -30.1893073239 -29.4124914739 61.4376925616  
H -30.4323018555 -29.3615031761 60.4586947989  
H -29.4892692069 -28.7424536191 61.4776336852  
O -32.1522872656 -31.1284761725 64.4766597806  
H -32.4732984563 -32.0294923952 64.2366928693  
H -31.3942694659 -31.0124556623 63.8876282594  
O -25.8722671760 -33.3734623522 67.3086375291  
H -26.7143033397 -32.7964994843 67.4327031437  
H -26.2073057321 -34.1945012397 67.6396926143  
O -28.8712902278 -27.8984757473 66.6736617094  
H -28.3222728752 -28.4044710289 66.0356442810  
H -29.7283117157 -28.2774928841 66.4416990312  
O -21.7222784067 -25.9874771016 61.8256577448  
H -22.4562899130 -25.4254835638 61.9506838674  
H -22.0333071220 -26.8094932172 62.1956934456  
O -24.9702924503 -25.9964901667 58.2196706459  
H -25.5353096327 -25.2574915443 57.8096938213  
H -25.5813101740 -26.5865009060 58.7176940356  
O -25.7870479341 -19.1275122360 57.5906980010  
H -26.0890456484 -19.3035075157 56.6927030783  
H -28.6813054630 -33.8604949488 57.4306933793  
O -28.3602874401 -32.9924766053 62.1926518370  
H -27.4392715984 -32.8954689429 62.0206408655  
H -28.4653046216 -33.9814921157 62.2606878192  
O -26.2322947854 -28.0504855377 63.5436863588  
H -26.7962718590 -28.6224613388 64.1936300947  
H -25.3412850639 -28.3054746813 63.9436578918  
O -28.2452937334 -29.8804833281 58.9206813895  
H -27.8402949863 -30.4714753750 58.2926692526  
H -27.4902830108 -29.8124693382 59.5316445097  
O -29.2133108850 -27.2445050219 57.2987035739  
H -28.4052783331 -27.6674712329 56.9816558968  
H -29.8582951329 -27.8704842264 57.0946756696  
O -22.8692988247 -24.1564952428 57.3316810146  
H -23.6252941739 -24.7704853975 57.3196746648  
H -22.3662663345 -24.2354633142 56.5586321722  
O -22.3492761303 -26.0534736286 65.2126490234  
H -22.8442830051 -25.2544717542 65.2936518633  
H -21.4392834825 -25.7514782803 65.2346606647  
O -27.4492957798 -26.5304868119 59.2346874579  
H -28.1772912435 -26.7574876576 58.6086763794  
H -27.9603114202 -26.8275003396 60.0146999833  
O -26.0422919657 -24.4594826250 60.7266765264  
H -26.7923050060 -23.8475071086 60.6977012022  
H -26.4192902181 -25.2104842109 60.2506647780  
O -30.4782880596 -31.8224740750 58.9556598886  
H -30.2153017151 -32.6634868408 58.5496851807  
H -29.6802876675 -31.2574776113 58.9456545971  
O -23.9660437532 -18.9555062662 54.3966887849  
H -24.4100123388 -19.4564748306 55.1316374773  
H -23.0760450900 -19.2645118703 54.4836947998  
O -30.3902779819 -32.0924791475 66.8076525731  
H -30.7853063604 -31.4595022032 66.2126979194  
H -30.1842782728 -32.8854662740 66.2806538592  
O -27.4382832477 -28.8434767084 55.8406524541  
H -26.4872844419 -28.9704762239 55.9156521192  
H -27.6902874193 -29.6414778959 55.3316632650  
O -25.5852928503 -35.3694807711 63.0496650857  
H -25.4522881174 -35.4014751529 62.0546588566  
H -24.6802764211 -35.2614727738 63.3236499882  
O -32.6102676034 -25.0594538565 67.3656276695  
H -32.6132860198 -24.6604724475 66.4996496796  
H -31.6373064137 -25.2404908494 67.5666940075  
O -25.9312672038 -23.9684599428 56.2506292787  
H -26.3242893319 -24.7014812394 55.7046605321  
H -25.8162929233 -23.3074812224 55.4876657700  
O -21.9363128187 -33.8605041549 65.6877002638  
H -22.5803088501 -33.3574931510 65.2316990984  
H -35.5702730280 -33.4304668571 65.1076334838  
O -27.3732788813 -27.2284599768 68.7556428070  
H -27.9492625169 -27.3794622934 67.9696271068  
H -27.9542725937 -26.6784565241 69.2606298796  
O -25.3702757295 -31.0894717277 55.2936431573  
H -24.5862703269 -31.0154634043 54.7546380936  
H -26.1162696186 -31.0864585110 54.6656310204  
O -28.0152667918 -31.5164684029 67.6106372478  
H -27.9292947867 -30.8514826307 68.2706663174  
H -28.9672775892 -31.6224661776 67.4906537921  
O -29.7252783978 -24.4384724975 59.8516537530  
H -28.9952803745 -24.5244742512 59.2496553740  
H -29.6953147786 -23.4935018726 60.0267063331  
O -29.7822971101 -23.7784772167 63.9676705914  
H -29.4092904477 -23.1014703767 63.4206612945  
H -28.9622740051 -24.0144569162 64.4366386146  
O -22.8492746247 -29.9924648505 59.6556300819  
H -22.7442907713 -29.0434833603 59.4536832783  
H -22.1022708843 -30.2084697680 60.2066414954  
O -25.0182973899 -32.0794806114 59.5976794336  
H -24.3492869898 -31.3724714172 59.7096586560  
H -25.8292714984 -31.7634621607 60.0666474568  
O -24.3403029014 -32.0824906028 65.4326853940  
H -24.4643044543 -31.2994954598 66.0526932977  
H -24.9443102811 -32.6985043909 65.8497059438  
O -24.4992719501 -30.0454571394 67.4546347427  
H -23.8292810692 -30.3574669680 68.0826468796  
H -25.1602657773 -29.6524610073 68.0606352383  
O -23.8832744360 -31.5114636467 62.7116463177  
H -23.5223044341 -30.5964986396 62.7106858097  
H -24.1732890498 -31.8564765916 63.5586542749  
O -26.4603003801 -30.4534937173 61.3526876050  
H -25.5892734808 -30.7614733980 61.7346496133  
H -26.7782955242 -29.7784807356 62.0136771827  
O -21.5832871789 -33.3244853177 61.8536725610  
H -21.5082758898 -34.2394703387 62.0486556817  
H -22.4762955146 -33.1184785336 62.0786715562  
O -22.4922955306 -28.9484883098 62.7856854748  
H -23.0892649326 -28.3824630774 63.2836288222  
H -21.8222948293 -29.1804911772 63.4446739941  
O -23.9992924826 -28.2874797706 65.1876758158  
H -24.1603066814 -28.8914985143 65.9756925743  
H -23.3442977348 -27.5944933163 65.4286832774  
O -29.8193085148 -34.6485046094 65.6856992055  
H -29.2092985691 -35.0974946813 65.0696934184  
H -30.7032909230 -35.0414823302 65.5386614416  
O -26.6442860114 -25.7954676652 54.2616573708  
H -25.9453042378 -26.4765012493 54.5686997563  
H -27.4402830079 -26.3334729240 54.0936485159  
O -26.7592868300 -31.9284861993 57.6016638005  
H -26.1673104702 -31.7605061899 56.8467045251  
H -26.0923057609 -32.1894948279 58.2757002783  
O -31.5415466310 -38.9434619827 65.8916481257  
H -31.3795474259 -37.9874694801 65.9176618836  
H -31.0775440310 -39.2234707538 66.6756627677  
O -32.2112691848 -32.8164583288 61.0116272283  
H -31.4112973973 -32.4074967357 60.6006898959  
H -32.8463025254 -32.1684962252 60.8276899494  
O -32.4502850294 -28.2314772977 63.0376587359  
H -32.6972946504 -29.1184880808 62.9926749453  
H -32.1032922511 -28.0344886495 62.1536712213  
O -17.6062941142 -23.2774927908 54.8346804256  
H -17.8962953009 -23.8974951375 54.1656866147  
H -17.2293017585 -23.8134862887 55.5256858777  
O -29.4932819183 -35.4804728009 68.3906497731  
H -29.5512928546 -35.3534766249 67.4436689432  
H -28.5212756641 -35.4074731682 68.6216519432  
O -30.6213071286 -31.6754996399 55.0976995285  
H -30.1982987639 -32.2054894427 54.4576810419  
H -31.3433034250 -32.1914950200 55.3126932323  
O -29.4612704272 -27.4984657709 54.2136319716  
H -15.9722809487 -27.7504707944 54.4746500162  
H -29.0102990740 -27.8224922281 54.9906829306  
O -31.3372786065 -29.0614692674 66.1366577040  
H -31.9392725160 -28.3474607046 65.9466372078  
H -31.7023051729 -29.7704922780 65.4506949187  
O -31.5853064633 -26.2124974090 61.0706984694  
H -31.5662943963 -26.8914873049 60.3416729095  
H -30.8432732144 -25.6444697005 60.8776363646  
O -21.5350419978 -20.1465118208 57.3757042972  
H -21.4710102030 -20.2274617960 56.4006286088  
H -22.4790173086 -20.3324847670 57.4276517707  
O -31.7662916702 -28.5174826268 58.9756704716  
H -31.6983026529 -28.4954908641 58.0346928166  
H -18.1612641719 -29.0484595723 59.1996289165  
O -27.6202823245 -29.8424641538 65.3546441203  
H -28.3953079818 -30.2645047182 64.8647050062  
H -27.3353142178 -30.6115017044 65.9167013756  
O -32.2242838947 -24.0234755523 64.8496570477  
H -31.3023002344 -24.0514972689 64.4716971560  
H -32.6343054177 -23.4475024198 64.2366928693  
O -24.3212915031 -34.7654775934 60.2486637197  
H -24.9712749499 -35.0674612037 59.5906357083  
H -24.3362850919 -33.7964787204 60.2326552533  
O -25.6123037317 -25.4254990249 67.7126912211  
H -26.2682914086 -26.1244791195 67.9746697737  
H -24.7802942590 -25.9284820227 67.7496707784  

